3 
4  57 
5  14 29 49 
6  05 20 35 50 
7  05 20 35 50 
8  05 20 35 50 
9  05 20 35 50 
10  05 20 35 50 
11  05 20 35 50 
12  05 20 35 50 
13  05 20 35 50 
14  05 20 35 50 
15  05 20 35 50 
16  05 20 35 50 
17  05 20 35 50 
18  05 20 35 50 
19  05 20 35 50 
20  05 20 35 50 
21  05 20 35 50 
22  05 20 35 50 
23  04 22 
0 
